p cnf 200 1110
-101 75 0
-101 36 0
-101 -33 0
-101 60 0
-101 -89 0
-101 59 0
-101 -76 0
-101 -63 0
-101 54 0
-101 21 0
101 -75 -36 33 -60 89 -59 76 63 -54 -21 0
-102 6 0
-102 13 0
-102 19 0
-102 -70 0
-102 75 0
-102 -18 0
-102 -77 0
-102 32 0
-102 -46 0
-102 -69 0
102 -6 -13 -19 70 -75 18 77 -32 46 69 0
-103 48 0
-103 91 0
-103 35 0
-103 61 0
-103 -25 0
-103 -73 0
-103 93 0
-103 19 0
-103 21 0
-103 -22 0
103 -48 -91 -35 -61 25 73 -93 -19 -21 22 0
-104 -20 0
-104 -69 0
-104 43 0
-104 44 0
-104 79 0
-104 74 0
-104 81 0
-104 59 0
-104 31 0
-104 71 0
104 20 69 -43 -44 -79 -74 -81 -59 -31 -71 0
-105 63 0
-105 -50 0
-105 54 0
-105 -3 0
-105 -33 0
-105 80 0
-105 -100 0
-105 -44 0
-105 -57 0
-105 -31 0
105 -63 50 -54 3 33 -80 100 44 57 31 0
-106 45 0
-106 59 0
-106 47 0
-106 -72 0
-106 -25 0
-106 -43 0
-106 58 0
-106 -20 0
-106 -38 0
-106 46 0
106 -45 -59 -47 72 25 43 -58 20 38 -46 0
-107 -13 0
-107 24 0
-107 -20 0
-107 -89 0
-107 -51 0
-107 53 0
-107 -96 0
-107 27 0
-107 -45 0
-107 -88 0
107 13 -24 20 89 51 -53 96 -27 45 88 0
-108 36 0
-108 83 0
-108 -4 0
-108 -99 0
-108 -92 0
-108 -57 0
-108 -12 0
-108 26 0
-108 -56 0
-108 -9 0
108 -36 -83 4 99 92 57 12 -26 56 9 0
-109 61 0
-109 -3 0
-109 99 0
-109 -24 0
-109 25 0
-109 -21 0
-109 -41 0
-109 -83 0
-109 -91 0
-109 -44 0
109 -61 3 -99 24 -25 21 41 83 91 44 0
-110 33 0
-110 83 0
-110 -81 0
-110 -15 0
-110 39 0
-110 -43 0
-110 3 0
-110 -36 0
-110 23 0
-110 8 0
110 -33 -83 81 15 -39 43 -3 36 -23 -8 0
101 102 103 104 105 106 107 108 109 110 0
-111 -84 0
-111 47 0
-111 22 0
-111 59 0
-111 -21 0
-111 -79 0
-111 -8 0
-111 -91 0
-111 43 0
-111 -14 0
111 84 -47 -22 -59 21 79 8 91 -43 14 0
-112 9 0
-112 18 0
-112 79 0
-112 -8 0
-112 -2 0
-112 -39 0
-112 6 0
-112 -3 0
-112 -62 0
-112 31 0
112 -9 -18 -79 8 2 39 -6 3 62 -31 0
-113 -67 0
-113 -88 0
-113 -80 0
-113 -81 0
-113 65 0
-113 -63 0
-113 -36 0
-113 -19 0
-113 70 0
-113 39 0
113 67 88 80 81 -65 63 36 19 -70 -39 0
-114 -95 0
-114 -30 0
-114 -52 0
-114 71 0
-114 98 0
-114 8 0
-114 -16 0
-114 -74 0
-114 47 0
-114 53 0
114 95 30 52 -71 -98 -8 16 74 -47 -53 0
-115 -57 0
-115 -87 0
-115 -83 0
-115 46 0
-115 9 0
-115 -45 0
-115 -56 0
-115 -44 0
-115 -36 0
-115 60 0
115 57 87 83 -46 -9 45 56 44 36 -60 0
-116 24 0
-116 -18 0
-116 90 0
-116 -29 0
-116 92 0
-116 39 0
-116 5 0
-116 -73 0
-116 38 0
-116 35 0
116 -24 18 -90 29 -92 -39 -5 73 -38 -35 0
-117 100 0
-117 -83 0
-117 50 0
-117 -74 0
-117 24 0
-117 65 0
-117 92 0
-117 73 0
-117 14 0
-117 26 0
117 -100 83 -50 74 -24 -65 -92 -73 -14 -26 0
-118 8 0
-118 67 0
-118 79 0
-118 98 0
-118 76 0
-118 92 0
-118 63 0
-118 -3 0
-118 -53 0
-118 -12 0
118 -8 -67 -79 -98 -76 -92 -63 3 53 12 0
-119 94 0
-119 -50 0
-119 61 0
-119 -89 0
-119 17 0
-119 -76 0
-119 38 0
-119 24 0
-119 1 0
-119 73 0
119 -94 50 -61 89 -17 76 -38 -24 -1 -73 0
-120 49 0
-120 95 0
-120 6 0
-120 3 0
-120 -64 0
-120 -42 0
-120 85 0
-120 -31 0
-120 -40 0
-120 -61 0
120 -49 -95 -6 -3 64 42 -85 31 40 61 0
111 112 113 114 115 116 117 118 119 120 0
-121 -12 0
-121 -61 0
-121 -81 0
-121 45 0
-121 84 0
-121 99 0
-121 46 0
-121 5 0
-121 -62 0
-121 56 0
121 12 61 81 -45 -84 -99 -46 -5 62 -56 0
-122 82 0
-122 52 0
-122 65 0
-122 -55 0
-122 18 0
-122 48 0
-122 38 0
-122 11 0
-122 40 0
-122 -7 0
122 -82 -52 -65 55 -18 -48 -38 -11 -40 7 0
-123 82 0
-123 92 0
-123 -36 0
-123 31 0
-123 -73 0
-123 100 0
-123 6 0
-123 -50 0
-123 79 0
-123 -67 0
123 -82 -92 36 -31 73 -100 -6 50 -79 67 0
-124 17 0
-124 50 0
-124 -90 0
-124 -98 0
-124 76 0
-124 13 0
-124 -41 0
-124 79 0
-124 33 0
-124 -78 0
124 -17 -50 90 98 -76 -13 41 -79 -33 78 0
-125 -78 0
-125 -94 0
-125 88 0
-125 86 0
-125 21 0
-125 -73 0
-125 -80 0
-125 84 0
-125 -82 0
-125 85 0
125 78 94 -88 -86 -21 73 80 -84 82 -85 0
-126 58 0
-126 -73 0
-126 -54 0
-126 47 0
-126 -64 0
-126 63 0
-126 67 0
-126 23 0
-126 31 0
-126 -41 0
126 -58 73 54 -47 64 -63 -67 -23 -31 41 0
-127 -70 0
-127 51 0
-127 -44 0
-127 -61 0
-127 16 0
-127 -56 0
-127 -34 0
-127 -13 0
-127 -98 0
-127 32 0
127 70 -51 44 61 -16 56 34 13 98 -32 0
-128 -25 0
-128 18 0
-128 -30 0
-128 82 0
-128 41 0
-128 63 0
-128 48 0
-128 64 0
-128 -68 0
-128 83 0
128 25 -18 30 -82 -41 -63 -48 -64 68 -83 0
-129 -22 0
-129 44 0
-129 -35 0
-129 30 0
-129 -43 0
-129 46 0
-129 -6 0
-129 7 0
-129 -41 0
-129 -71 0
129 22 -44 35 -30 43 -46 6 -7 41 71 0
-130 70 0
-130 -48 0
-130 -42 0
-130 97 0
-130 93 0
-130 -56 0
-130 -90 0
-130 -100 0
-130 -18 0
-130 -51 0
130 -70 48 42 -97 -93 56 90 100 18 51 0
121 122 123 124 125 126 127 128 129 130 0
-131 -36 0
-131 3 0
-131 24 0
-131 43 0
-131 13 0
-131 70 0
-131 -6 0
-131 2 0
-131 -56 0
-131 10 0
131 36 -3 -24 -43 -13 -70 6 -2 56 -10 0
-132 53 0
-132 -95 0
-132 -75 0
-132 31 0
-132 -51 0
-132 92 0
-132 -18 0
-132 88 0
-132 -58 0
-132 -52 0
132 -53 95 75 -31 51 -92 18 -88 58 52 0
-133 -46 0
-133 -84 0
-133 -59 0
-133 -65 0
-133 -54 0
-133 -26 0
-133 -55 0
-133 68 0
-133 33 0
-133 -36 0
133 46 84 59 65 54 26 55 -68 -33 36 0
-134 1 0
-134 -48 0
-134 -62 0
-134 -47 0
-134 58 0
-134 -67 0
-134 -18 0
-134 -17 0
-134 -51 0
-134 82 0
134 -1 48 62 47 -58 67 18 17 51 -82 0
-135 17 0
-135 -8 0
-135 86 0
-135 -41 0
-135 16 0
-135 90 0
-135 77 0
-135 24 0
-135 76 0
-135 -51 0
135 -17 8 -86 41 -16 -90 -77 -24 -76 51 0
-136 97 0
-136 -51 0
-136 5 0
-136 32 0
-136 83 0
-136 63 0
-136 15 0
-136 62 0
-136 -50 0
-136 58 0
136 -97 51 -5 -32 -83 -63 -15 -62 50 -58 0
-137 -89 0
-137 -63 0
-137 78 0
-137 70 0
-137 12 0
-137 -16 0
-137 62 0
-137 37 0
-137 -95 0
-137 57 0
137 89 63 -78 -70 -12 16 -62 -37 95 -57 0
-138 43 0
-138 -70 0
-138 62 0
-138 -32 0
-138 -94 0
-138 -86 0
-138 -30 0
-138 -9 0
-138 -33 0
-138 -12 0
138 -43 70 -62 32 94 86 30 9 33 12 0
-139 -62 0
-139 46 0
-139 54 0
-139 13 0
-139 48 0
-139 -64 0
-139 18 0
-139 -28 0
-139 -65 0
-139 -76 0
139 62 -46 -54 -13 -48 64 -18 28 65 76 0
-140 -90 0
-140 -59 0
-140 -16 0
-140 -43 0
-140 -18 0
-140 55 0
-140 78 0
-140 -46 0
-140 -72 0
-140 15 0
140 90 59 16 43 18 -55 -78 46 72 -15 0
131 132 133 134 135 136 137 138 139 140 0
-141 62 0
-141 28 0
-141 47 0
-141 38 0
-141 48 0
-141 3 0
-141 -40 0
-141 -5 0
-141 -60 0
-141 82 0
141 -62 -28 -47 -38 -48 -3 40 5 60 -82 0
-142 91 0
-142 -48 0
-142 40 0
-142 -7 0
-142 22 0
-142 66 0
-142 88 0
-142 39 0
-142 49 0
-142 5 0
142 -91 48 -40 7 -22 -66 -88 -39 -49 -5 0
-143 -73 0
-143 -8 0
-143 -11 0
-143 -18 0
-143 -28 0
-143 56 0
-143 48 0
-143 5 0
-143 -25 0
-143 76 0
143 73 8 11 18 28 -56 -48 -5 25 -76 0
-144 27 0
-144 -66 0
-144 48 0
-144 -54 0
-144 33 0
-144 -21 0
-144 -98 0
-144 -26 0
-144 -88 0
-144 -50 0
144 -27 66 -48 54 -33 21 98 26 88 50 0
-145 -88 0
-145 -22 0
-145 89 0
-145 -21 0
-145 -11 0
-145 -14 0
-145 70 0
-145 -3 0
-145 -81 0
-145 7 0
145 88 22 -89 21 11 14 -70 3 81 -7 0
-146 -92 0
-146 -71 0
-146 82 0
-146 79 0
-146 -62 0
-146 -21 0
-146 -52 0
-146 -19 0
-146 7 0
-146 93 0
146 92 71 -82 -79 62 21 52 19 -7 -93 0
-147 46 0
-147 31 0
-147 55 0
-147 89 0
-147 93 0
-147 98 0
-147 -78 0
-147 -62 0
-147 -97 0
-147 30 0
147 -46 -31 -55 -89 -93 -98 78 62 97 -30 0
-148 63 0
-148 79 0
-148 -97 0
-148 -99 0
-148 18 0
-148 -53 0
-148 -78 0
-148 -41 0
-148 -93 0
-148 -67 0
148 -63 -79 97 99 -18 53 78 41 93 67 0
-149 -79 0
-149 37 0
-149 -18 0
-149 72 0
-149 67 0
-149 -80 0
-149 -23 0
-149 -11 0
-149 69 0
-149 7 0
149 79 -37 18 -72 -67 80 23 11 -69 -7 0
-150 -68 0
-150 33 0
-150 23 0
-150 79 0
-150 -13 0
-150 -43 0
-150 95 0
-150 -26 0
-150 57 0
-150 -7 0
150 68 -33 -23 -79 13 43 -95 26 -57 7 0
141 142 143 144 145 146 147 148 149 150 0
-151 -65 0
-151 -53 0
-151 28 0
-151 76 0
-151 -87 0
-151 -64 0
-151 -29 0
-151 17 0
-151 95 0
-151 59 0
151 65 53 -28 -76 87 64 29 -17 -95 -59 0
-152 -1 0
-152 -48 0
-152 9 0
-152 -93 0
-152 96 0
-152 13 0
-152 -25 0
-152 38 0
-152 53 0
-152 60 0
152 1 48 -9 93 -96 -13 25 -38 -53 -60 0
-153 -57 0
-153 76 0
-153 -7 0
-153 82 0
-153 24 0
-153 -33 0
-153 59 0
-153 69 0
-153 63 0
-153 79 0
153 57 -76 7 -82 -24 33 -59 -69 -63 -79 0
-154 35 0
-154 55 0
-154 3 0
-154 -95 0
-154 -28 0
-154 -39 0
-154 -89 0
-154 29 0
-154 -61 0
-154 -41 0
154 -35 -55 -3 95 28 39 89 -29 61 41 0
-155 36 0
-155 43 0
-155 -1 0
-155 78 0
-155 -79 0
-155 45 0
-155 88 0
-155 33 0
-155 100 0
-155 26 0
155 -36 -43 1 -78 79 -45 -88 -33 -100 -26 0
-156 -78 0
-156 31 0
-156 -69 0
-156 53 0
-156 90 0
-156 68 0
-156 -49 0
-156 100 0
-156 -88 0
-156 -94 0
156 78 -31 69 -53 -90 -68 49 -100 88 94 0
-157 71 0
-157 79 0
-157 19 0
-157 48 0
-157 18 0
-157 -14 0
-157 47 0
-157 -53 0
-157 87 0
-157 59 0
157 -71 -79 -19 -48 -18 14 -47 53 -87 -59 0
-158 79 0
-158 -93 0
-158 -58 0
-158 44 0
-158 -51 0
-158 -19 0
-158 -69 0
-158 -2 0
-158 83 0
-158 28 0
158 -79 93 58 -44 51 19 69 2 -83 -28 0
-159 26 0
-159 39 0
-159 58 0
-159 -21 0
-159 81 0
-159 -7 0
-159 47 0
-159 12 0
-159 91 0
-159 -63 0
159 -26 -39 -58 21 -81 7 -47 -12 -91 63 0
-160 -19 0
-160 31 0
-160 -11 0
-160 -41 0
-160 -97 0
-160 -49 0
-160 -69 0
-160 -94 0
-160 12 0
-160 -10 0
160 19 -31 11 41 97 49 69 94 -12 10 0
151 152 153 154 155 156 157 158 159 160 0
-161 69 0
-161 25 0
-161 -11 0
-161 39 0
-161 -89 0
-161 -29 0
-161 53 0
-161 -48 0
-161 14 0
-161 26 0
161 -69 -25 11 -39 89 29 -53 48 -14 -26 0
-162 -16 0
-162 46 0
-162 43 0
-162 -84 0
-162 -31 0
-162 71 0
-162 9 0
-162 -13 0
-162 -57 0
-162 -69 0
162 16 -46 -43 84 31 -71 -9 13 57 69 0
-163 -65 0
-163 -40 0
-163 -63 0
-163 46 0
-163 -12 0
-163 -57 0
-163 91 0
-163 -97 0
-163 48 0
-163 -10 0
163 65 40 63 -46 12 57 -91 97 -48 10 0
-164 46 0
-164 -75 0
-164 45 0
-164 48 0
-164 22 0
-164 -85 0
-164 -77 0
-164 91 0
-164 -44 0
-164 -20 0
164 -46 75 -45 -48 -22 85 77 -91 44 20 0
-165 -42 0
-165 97 0
-165 -99 0
-165 -44 0
-165 100 0
-165 94 0
-165 -39 0
-165 96 0
-165 84 0
-165 33 0
165 42 -97 99 44 -100 -94 39 -96 -84 -33 0
-166 -78 0
-166 -21 0
-166 81 0
-166 69 0
-166 18 0
-166 -42 0
-166 58 0
-166 -100 0
-166 61 0
-166 -64 0
166 78 21 -81 -69 -18 42 -58 100 -61 64 0
-167 22 0
-167 -84 0
-167 83 0
-167 -91 0
-167 89 0
-167 -60 0
-167 3 0
-167 -87 0
-167 -57 0
-167 -42 0
167 -22 84 -83 91 -89 60 -3 87 57 42 0
-168 -13 0
-168 -100 0
-168 -43 0
-168 12 0
-168 -76 0
-168 -38 0
-168 -93 0
-168 -54 0
-168 1 0
-168 -4 0
168 13 100 43 -12 76 38 93 54 -1 4 0
-169 -94 0
-169 29 0
-169 98 0
-169 -60 0
-169 -42 0
-169 -39 0
-169 -68 0
-169 9 0
-169 61 0
-169 -16 0
169 94 -29 -98 60 42 39 68 -9 -61 16 0
-170 9 0
-170 24 0
-170 55 0
-170 38 0
-170 -62 0
-170 -31 0
-170 46 0
-170 -49 0
-170 70 0
-170 -100 0
170 -9 -24 -55 -38 62 31 -46 49 -70 100 0
161 162 163 164 165 166 167 168 169 170 0
-171 -93 0
-171 18 0
-171 -24 0
-171 41 0
-171 19 0
-171 -60 0
-171 -72 0
-171 69 0
-171 -77 0
-171 27 0
171 93 -18 24 -41 -19 60 72 -69 77 -27 0
-172 53 0
-172 44 0
-172 -20 0
-172 -33 0
-172 -52 0
-172 -50 0
-172 37 0
-172 -85 0
-172 -14 0
-172 -99 0
172 -53 -44 20 33 52 50 -37 85 14 99 0
-173 21 0
-173 30 0
-173 -61 0
-173 -31 0
-173 36 0
-173 35 0
-173 47 0
-173 -98 0
-173 94 0
-173 76 0
173 -21 -30 61 31 -36 -35 -47 98 -94 -76 0
-174 -16 0
-174 -27 0
-174 -73 0
-174 -83 0
-174 88 0
-174 -12 0
-174 -11 0
-174 -39 0
-174 -54 0
-174 -80 0
174 16 27 73 83 -88 12 11 39 54 80 0
-175 28 0
-175 44 0
-175 62 0
-175 80 0
-175 82 0
-175 12 0
-175 100 0
-175 -86 0
-175 91 0
-175 -31 0
175 -28 -44 -62 -80 -82 -12 -100 86 -91 31 0
-176 10 0
-176 33 0
-176 18 0
-176 19 0
-176 -40 0
-176 82 0
-176 25 0
-176 -72 0
-176 3 0
-176 75 0
176 -10 -33 -18 -19 40 -82 -25 72 -3 -75 0
-177 4 0
-177 29 0
-177 97 0
-177 75 0
-177 -20 0
-177 -61 0
-177 -99 0
-177 -71 0
-177 12 0
-177 6 0
177 -4 -29 -97 -75 20 61 99 71 -12 -6 0
-178 -51 0
-178 83 0
-178 -71 0
-178 -21 0
-178 85 0
-178 -99 0
-178 -40 0
-178 96 0
-178 78 0
-178 -2 0
178 51 -83 71 21 -85 99 40 -96 -78 2 0
-179 -84 0
-179 -54 0
-179 59 0
-179 -85 0
-179 3 0
-179 49 0
-179 2 0
-179 -96 0
-179 -18 0
-179 -86 0
179 84 54 -59 85 -3 -49 -2 96 18 86 0
-180 93 0
-180 51 0
-180 58 0
-180 -4 0
-180 84 0
-180 -42 0
-180 -75 0
-180 -64 0
-180 95 0
-180 -49 0
180 -93 -51 -58 4 -84 42 75 64 -95 49 0
171 172 173 174 175 176 177 178 179 180 0
-181 -26 0
-181 -55 0
-181 45 0
-181 70 0
-181 31 0
-181 -13 0
-181 -20 0
-181 62 0
-181 43 0
-181 32 0
181 26 55 -45 -70 -31 13 20 -62 -43 -32 0
-182 -82 0
-182 100 0
-182 73 0
-182 27 0
-182 40 0
-182 66 0
-182 -7 0
-182 -5 0
-182 88 0
-182 -86 0
182 82 -100 -73 -27 -40 -66 7 5 -88 86 0
-183 -7 0
-183 -25 0
-183 91 0
-183 -81 0
-183 34 0
-183 -42 0
-183 71 0
-183 99 0
-183 -20 0
-183 88 0
183 7 25 -91 81 -34 42 -71 -99 20 -88 0
-184 86 0
-184 72 0
-184 -89 0
-184 -84 0
-184 -17 0
-184 68 0
-184 27 0
-184 76 0
-184 -14 0
-184 -87 0
184 -86 -72 89 84 17 -68 -27 -76 14 87 0
-185 -73 0
-185 68 0
-185 -85 0
-185 21 0
-185 -89 0
-185 29 0
-185 -42 0
-185 -79 0
-185 90 0
-185 33 0
185 73 -68 85 -21 89 -29 42 79 -90 -33 0
-186 -17 0
-186 -83 0
-186 38 0
-186 -92 0
-186 24 0
-186 100 0
-186 -68 0
-186 -80 0
-186 16 0
-186 -63 0
186 17 83 -38 92 -24 -100 68 80 -16 63 0
-187 98 0
-187 -74 0
-187 -35 0
-187 90 0
-187 88 0
-187 -43 0
-187 23 0
-187 56 0
-187 47 0
-187 67 0
187 -98 74 35 -90 -88 43 -23 -56 -47 -67 0
-188 69 0
-188 39 0
-188 3 0
-188 84 0
-188 11 0
-188 -97 0
-188 49 0
-188 -63 0
-188 -66 0
-188 -2 0
188 -69 -39 -3 -84 -11 97 -49 63 66 2 0
-189 89 0
-189 -62 0
-189 76 0
-189 -20 0
-189 44 0
-189 -72 0
-189 38 0
-189 -85 0
-189 -78 0
-189 64 0
189 -89 62 -76 20 -44 72 -38 85 78 -64 0
-190 78 0
-190 -70 0
-190 -56 0
-190 -1 0
-190 50 0
-190 67 0
-190 -91 0
-190 -66 0
-190 -55 0
-190 -100 0
190 -78 70 56 1 -50 -67 91 66 55 100 0
181 182 183 184 185 186 187 188 189 190 0
-191 -23 0
-191 9 0
-191 -52 0
-191 -41 0
-191 -64 0
-191 -32 0
-191 -66 0
-191 86 0
-191 -94 0
-191 -42 0
191 23 -9 52 41 64 32 66 -86 94 42 0
-192 90 0
-192 76 0
-192 94 0
-192 -88 0
-192 -44 0
-192 -25 0
-192 -59 0
-192 87 0
-192 5 0
-192 74 0
192 -90 -76 -94 88 44 25 59 -87 -5 -74 0
-193 -24 0
-193 75 0
-193 -97 0
-193 -70 0
-193 -83 0
-193 -62 0
-193 88 0
-193 42 0
-193 -67 0
-193 -45 0
193 24 -75 97 70 83 62 -88 -42 67 45 0
-194 -73 0
-194 -33 0
-194 90 0
-194 -38 0
-194 -28 0
-194 -25 0
-194 -95 0
-194 24 0
-194 41 0
-194 88 0
194 73 33 -90 38 28 25 95 -24 -41 -88 0
-195 -96 0
-195 -30 0
-195 33 0
-195 -16 0
-195 9 0
-195 31 0
-195 36 0
-195 55 0
-195 51 0
-195 71 0
195 96 30 -33 16 -9 -31 -36 -55 -51 -71 0
-196 49 0
-196 35 0
-196 85 0
-196 36 0
-196 80 0
-196 97 0
-196 -46 0
-196 45 0
-196 -4 0
-196 -14 0
196 -49 -35 -85 -36 -80 -97 46 -45 4 14 0
-197 -76 0
-197 38 0
-197 -36 0
-197 -33 0
-197 -66 0
-197 1 0
-197 29 0
-197 -61 0
-197 -94 0
-197 2 0
197 76 -38 36 33 66 -1 -29 61 94 -2 0
-198 -58 0
-198 53 0
-198 -95 0
-198 -71 0
-198 38 0
-198 -35 0
-198 67 0
-198 -36 0
-198 14 0
-198 59 0
198 58 -53 95 71 -38 35 -67 36 -14 -59 0
-199 -26 0
-199 68 0
-199 -20 0
-199 -38 0
-199 -62 0
-199 -6 0
-199 -60 0
-199 56 0
-199 88 0
-199 -80 0
199 26 -68 20 38 62 6 60 -56 -88 80 0
-200 34 0
-200 92 0
-200 -24 0
-200 -91 0
-200 -21 0
-200 3 0
-200 33 0
-200 4 0
-200 53 0
-200 85 0
200 -34 -92 24 91 21 -3 -33 -4 -53 -85 0
191 192 193 194 195 196 197 198 199 200 0
